DATASET = "thpack2";
INSTANCE = "011";

WIDTH = 233;
HEIGHT = 220;
LENGTH = 587;

NO_OF_SHAPES = 5;
size = [|
  74,63,61 |
  71,60,25 |
  106,80,59 |
  109,76,42 |
  118,56,22 |
|];

verticality = [|
  1,1,1 |
  0,0,1 |
  1,1,1 |
  0,1,1 |
  0,0,1 |
|];

box_count = [
  22,
  12,
  25,
  24,
  11,
];
